outputs/case_342.model.txt
financial_improvement_plan_completed = False
net_worth = -10
capital_adequacy_ratio = 40
improvement_effective = True
financial_or_business_deterioration = True
merger_completed = True
business_improvement_plan_completed = False
improvement_plan_submitted_and_approved = True
net_worth_ratio_prev1 = 3/2
net_worth_ratio_prev2 = 9/5
profit_loss_accelerated_deterioration = False
capital_increase_completed = False
capital_level = 4
significant_deterioration_and_no_improvement = False
serious_insufficient_and_no_measures = False
significant_deterioration_and_no_approved_plan = False
penalty = False